DATASET = "thpack1";
INSTANCE = "030";

WIDTH = 233;
HEIGHT = 220;
LENGTH = 587;

NO_OF_SHAPES = 3;
size = [|
  64,53,32 |
  51,42,28 |
  49,32,30 |
|];

verticality = [|
  0,1,1 |
  1,1,1 |
  1,1,1 |
|];

box_count = [
  154,
  117,
  134,
];
